DIMENSION: 7
EDGE_WEIGHT_TYPE: EXPLICIT
EDGE_WEIGHT_FORMAT: FULL_MATRIX
EDGE_WEIGHT_SECTION:
32767 83 1 27 74 75 5 
83 32767 70 64 83 69 99 
1 70 32767 63 70 2 83 
27 64 63 32767 32767 66 61 
74 83 70 32767 32767 32767 32767 
75 69 2 66 32767 32767 26 
5 99 83 61 32767 26 32767 
EOF